c "774684.clq"
p edge 248 3712
e 1 17
e 1 18
e 1 19
e 1 20
e 1 25
e 1 26
e 1 29
e 1 34
e 1 35
e 1 36
e 1 40
e 1 42
e 1 43
e 1 56
e 1 57
e 1 61
e 1 65
e 1 79
e 1 92
e 1 110
e 1 111
e 1 116
e 1 117
e 1 141
e 1 153
e 1 164
e 1 186
e 1 191
e 1 196
e 1 199
e 1 203
e 1 221
e 2 17
e 2 18
e 2 20
e 2 21
e 2 22
e 2 23
e 2 24
e 2 26
e 2 27
e 2 28
e 2 29
e 2 31
e 2 35
e 2 38
e 2 40
e 2 41
e 2 45
e 2 47
e 2 48
e 2 52
e 2 54
e 2 56
e 2 62
e 2 67
e 2 73
e 2 77
e 2 79
e 2 97
e 2 99
e 2 106
e 2 108
e 2 114
e 2 116
e 2 120
e 2 130
e 2 144
e 2 148
e 2 169
e 2 174
e 2 203
e 2 205
e 2 227
e 2 236
e 3 17
e 3 18
e 3 19
e 3 21
e 3 22
e 3 23
e 3 25
e 3 26
e 3 27
e 3 28
e 3 30
e 3 32
e 3 36
e 3 38
e 3 40
e 3 42
e 3 43
e 3 44
e 3 47
e 3 48
e 3 53
e 3 55
e 3 67
e 3 72
e 3 80
e 3 86
e 3 90
e 3 107
e 3 110
e 3 118
e 3 121
e 3 122
e 3 124
e 3 125
e 3 126
e 3 146
e 3 147
e 3 152
e 3 165
e 3 170
e 3 172
e 3 190
e 3 201
e 3 213
e 3 217
e 3 219
e 3 220
e 3 223
e 3 228
e 3 239
e 4 17
e 4 18
e 4 19
e 4 20
e 4 21
e 4 22
e 4 23
e 4 24
e 4 25
e 4 26
e 4 29
e 4 30
e 4 32
e 4 33
e 4 37
e 4 38
e 4 40
e 4 41
e 4 42
e 4 43
e 4 45
e 4 48
e 4 49
e 4 50
e 4 52
e 4 55
e 4 60
e 4 66
e 4 68
e 4 71
e 4 72
e 4 81
e 4 83
e 4 85
e 4 90
e 4 97
e 4 103
e 4 104
e 4 113
e 4 116
e 4 117
e 4 118
e 4 119
e 4 120
e 4 123
e 4 126
e 4 127
e 4 128
e 4 134
e 4 136
e 4 143
e 4 148
e 4 157
e 4 173
e 4 184
e 4 195
e 4 202
e 4 207
e 4 232
e 4 240
e 4 241
e 4 245
e 5 17
e 5 18
e 5 19
e 5 20
e 5 21
e 5 22
e 5 25
e 5 27
e 5 28
e 5 29
e 5 31
e 5 34
e 5 36
e 5 46
e 5 50
e 5 61
e 5 64
e 5 65
e 5 81
e 5 94
e 5 108
e 5 111
e 5 116
e 5 156
e 5 168
e 5 180
e 5 195
e 5 210
e 5 214
e 5 215
e 5 217
e 5 225
e 5 230
e 5 237
e 6 17
e 6 18
e 6 19
e 6 20
e 6 21
e 6 22
e 6 29
e 6 33
e 6 35
e 6 39
e 6 42
e 6 43
e 6 45
e 6 46
e 6 63
e 6 65
e 6 70
e 6 78
e 6 79
e 6 100
e 6 102
e 6 112
e 6 130
e 6 135
e 6 141
e 6 145
e 6 151
e 6 156
e 6 189
e 6 194
e 6 199
e 6 201
e 6 205
e 6 224
e 6 231
e 6 235
e 6 248
e 7 17
e 7 18
e 7 19
e 7 20
e 7 21
e 7 22
e 7 23
e 7 24
e 7 25
e 7 26
e 7 29
e 7 30
e 7 33
e 7 34
e 7 36
e 7 37
e 7 39
e 7 40
e 7 45
e 7 51
e 7 53
e 7 58
e 7 61
e 7 64
e 7 70
e 7 73
e 7 89
e 7 93
e 7 94
e 7 96
e 7 100
e 7 105
e 7 108
e 7 110
e 7 113
e 7 114
e 7 124
e 7 134
e 7 138
e 7 144
e 7 146
e 7 149
e 7 156
e 7 162
e 7 165
e 7 171
e 7 180
e 7 189
e 7 194
e 7 200
e 7 206
e 7 224
e 7 234
e 8 17
e 8 18
e 8 19
e 8 20
e 8 21
e 8 22
e 8 23
e 8 24
e 8 25
e 8 26
e 8 28
e 8 31
e 8 37
e 8 38
e 8 43
e 8 45
e 8 49
e 8 56
e 8 61
e 8 64
e 8 69
e 8 70
e 8 94
e 8 104
e 8 107
e 8 119
e 8 124
e 8 128
e 8 139
e 8 146
e 8 151
e 8 162
e 8 165
e 8 170
e 8 185
e 8 193
e 8 207
e 8 218
e 8 222
e 8 244
e 9 17
e 9 18
e 9 19
e 9 20
e 9 21
e 9 23
e 9 24
e 9 25
e 9 29
e 9 33
e 9 37
e 9 41
e 9 43
e 9 62
e 9 66
e 9 92
e 9 95
e 9 108
e 9 119
e 9 123
e 9 124
e 9 139
e 9 161
e 9 172
e 9 173
e 9 177
e 9 239
e 9 243
e 10 17
e 10 18
e 10 19
e 10 20
e 10 21
e 10 34
e 10 36
e 10 38
e 10 42
e 10 43
e 10 44
e 10 52
e 10 55
e 10 68
e 10 74
e 10 77
e 10 81
e 10 96
e 10 100
e 10 104
e 10 117
e 10 132
e 10 147
e 10 162
e 10 169
e 10 179
e 10 181
e 10 207
e 10 230
e 10 237
e 11 17
e 11 18
e 11 19
e 11 21
e 11 23
e 11 24
e 11 25
e 11 27
e 11 28
e 11 33
e 11 36
e 11 38
e 11 47
e 11 53
e 11 60
e 11 62
e 11 69
e 11 72
e 11 73
e 11 74
e 11 76
e 11 78
e 11 79
e 11 92
e 11 98
e 11 108
e 11 115
e 11 125
e 11 132
e 11 145
e 11 173
e 11 187
e 11 202
e 11 203
e 11 225
e 11 240
e 12 17
e 12 18
e 12 19
e 12 21
e 12 22
e 12 23
e 12 24
e 12 27
e 12 29
e 12 31
e 12 41
e 12 42
e 12 51
e 12 57
e 12 58
e 12 71
e 12 75
e 12 79
e 12 83
e 12 84
e 12 86
e 12 94
e 12 96
e 12 97
e 12 113
e 12 138
e 12 139
e 12 142
e 12 147
e 12 160
e 12 167
e 12 168
e 12 174
e 12 197
e 12 201
e 12 213
e 12 218
e 12 223
e 12 241
e 12 243
e 13 17
e 13 18
e 13 19
e 13 20
e 13 22
e 13 23
e 13 26
e 13 29
e 13 30
e 13 31
e 13 33
e 13 39
e 13 44
e 13 45
e 13 46
e 13 47
e 13 49
e 13 50
e 13 51
e 13 56
e 13 65
e 13 68
e 13 70
e 13 78
e 13 82
e 13 88
e 13 90
e 13 110
e 13 127
e 13 129
e 13 132
e 13 135
e 13 139
e 13 142
e 13 158
e 13 164
e 13 176
e 13 180
e 13 184
e 13 185
e 13 193
e 13 194
e 13 201
e 13 204
e 13 211
e 13 212
e 14 17
e 14 18
e 14 19
e 14 20
e 14 21
e 14 23
e 14 24
e 14 28
e 14 29
e 14 31
e 14 32
e 14 33
e 14 34
e 14 36
e 14 46
e 14 47
e 14 54
e 14 61
e 14 73
e 14 78
e 14 79
e 14 90
e 14 98
e 14 105
e 14 111
e 14 112
e 14 158
e 14 160
e 14 164
e 14 174
e 14 192
e 14 204
e 14 232
e 14 239
e 15 17
e 15 18
e 15 20
e 15 22
e 15 27
e 15 31
e 15 32
e 15 34
e 15 39
e 15 42
e 15 48
e 15 52
e 15 59
e 15 64
e 15 70
e 15 73
e 15 81
e 15 84
e 15 89
e 15 97
e 15 99
e 15 134
e 15 136
e 15 137
e 15 152
e 15 168
e 15 177
e 15 181
e 15 183
e 15 186
e 15 194
e 15 198
e 15 199
e 15 204
e 15 211
e 15 233
e 15 247
e 16 17
e 16 19
e 16 20
e 16 22
e 16 24
e 16 25
e 16 26
e 16 27
e 16 30
e 16 34
e 16 51
e 16 65
e 16 79
e 16 113
e 16 131
e 16 135
e 16 136
e 16 166
e 16 183
e 16 184
e 16 202
e 16 210
e 16 212
e 16 215
e 17 18
e 17 19
e 17 20
e 17 21
e 17 22
e 17 23
e 17 24
e 17 25
e 17 26
e 17 27
e 17 28
e 17 29
e 17 30
e 17 31
e 17 32
e 17 35
e 17 36
e 17 37
e 17 38
e 17 39
e 17 40
e 17 42
e 17 44
e 17 45
e 17 47
e 17 48
e 17 50
e 17 51
e 17 53
e 17 56
e 17 57
e 17 59
e 17 62
e 17 63
e 17 70
e 17 71
e 17 72
e 17 77
e 17 78
e 17 79
e 17 80
e 17 82
e 17 84
e 17 86
e 17 89
e 17 90
e 17 93
e 17 95
e 17 98
e 17 103
e 17 104
e 17 106
e 17 109
e 17 110
e 17 112
e 17 113
e 17 114
e 17 115
e 17 119
e 17 120
e 17 123
e 17 125
e 17 126
e 17 130
e 17 132
e 17 136
e 17 137
e 17 138
e 17 141
e 17 143
e 17 147
e 17 152
e 17 155
e 17 173
e 17 174
e 17 185
e 17 187
e 17 189
e 17 190
e 17 194
e 17 201
e 17 203
e 17 207
e 17 219
e 17 221
e 17 228
e 17 232
e 17 236
e 17 244
e 17 247
e 18 19
e 18 20
e 18 21
e 18 22
e 18 23
e 18 24
e 18 26
e 18 27
e 18 28
e 18 31
e 18 32
e 18 33
e 18 34
e 18 35
e 18 37
e 18 39
e 18 40
e 18 42
e 18 44
e 18 48
e 18 51
e 18 52
e 18 54
e 18 55
e 18 56
e 18 64
e 18 68
e 18 72
e 18 74
e 18 75
e 18 76
e 18 77
e 18 79
e 18 84
e 18 88
e 18 89
e 18 90
e 18 95
e 18 97
e 18 102
e 18 103
e 18 107
e 18 108
e 18 109
e 18 120
e 18 122
e 18 124
e 18 130
e 18 137
e 18 142
e 18 145
e 18 149
e 18 153
e 18 154
e 18 158
e 18 159
e 18 167
e 18 169
e 18 171
e 18 173
e 18 177
e 18 179
e 18 182
e 18 185
e 18 186
e 18 190
e 18 191
e 18 192
e 18 193
e 18 199
e 18 207
e 18 208
e 18 209
e 18 231
e 18 233
e 18 242
e 18 246
e 19 20
e 19 21
e 19 22
e 19 23
e 19 24
e 19 25
e 19 26
e 19 28
e 19 30
e 19 31
e 19 32
e 19 33
e 19 34
e 19 35
e 19 36
e 19 38
e 19 40
e 19 41
e 19 43
e 19 44
e 19 45
e 19 46
e 19 47
e 19 48
e 19 50
e 19 51
e 19 52
e 19 59
e 19 60
e 19 66
e 19 69
e 19 71
e 19 72
e 19 74
e 19 77
e 19 78
e 19 81
e 19 83
e 19 84
e 19 85
e 19 89
e 19 90
e 19 92
e 19 93
e 19 95
e 19 96
e 19 97
e 19 99
e 19 101
e 19 102
e 19 104
e 19 107
e 19 109
e 19 114
e 19 115
e 19 119
e 19 121
e 19 122
e 19 124
e 19 125
e 19 132
e 19 135
e 19 139
e 19 142
e 19 154
e 19 156
e 19 157
e 19 159
e 19 160
e 19 163
e 19 164
e 19 173
e 19 175
e 19 177
e 19 179
e 19 181
e 19 182
e 19 184
e 19 188
e 19 194
e 19 196
e 19 200
e 19 206
e 19 208
e 19 217
e 19 221
e 19 222
e 19 223
e 19 227
e 19 228
e 19 230
e 19 231
e 19 233
e 19 241
e 19 247
e 20 21
e 20 22
e 20 23
e 20 24
e 20 25
e 20 27
e 20 29
e 20 30
e 20 33
e 20 35
e 20 37
e 20 39
e 20 40
e 20 43
e 20 44
e 20 47
e 20 48
e 20 49
e 20 50
e 20 53
e 20 54
e 20 56
e 20 58
e 20 59
e 20 60
e 20 62
e 20 63
e 20 68
e 20 71
e 20 77
e 20 82
e 20 83
e 20 88
e 20 91
e 20 92
e 20 97
e 20 101
e 20 106
e 20 112
e 20 114
e 20 115
e 20 117
e 20 120
e 20 121
e 20 128
e 20 129
e 20 132
e 20 147
e 20 155
e 20 159
e 20 168
e 20 169
e 20 197
e 20 201
e 20 202
e 20 205
e 20 219
e 20 224
e 20 237
e 21 22
e 21 23
e 21 24
e 21 25
e 21 26
e 21 27
e 21 28
e 21 30
e 21 31
e 21 32
e 21 34
e 21 35
e 21 37
e 21 38
e 21 39
e 21 41
e 21 43
e 21 44
e 21 45
e 21 46
e 21 47
e 21 48
e 21 49
e 21 50
e 21 52
e 21 55
e 21 56
e 21 58
e 21 60
e 21 63
e 21 66
e 21 67
e 21 68
e 21 70
e 21 72
e 21 73
e 21 76
e 21 79
e 21 82
e 21 83
e 21 84
e 21 85
e 21 87
e 21 88
e 21 90
e 21 91
e 21 94
e 21 96
e 21 97
e 21 102
e 21 104
e 21 105
e 21 112
e 21 114
e 21 120
e 21 129
e 21 133
e 21 137
e 21 139
e 21 142
e 21 143
e 21 145
e 21 151
e 21 159
e 21 160
e 21 168
e 21 171
e 21 175
e 21 179
e 21 181
e 21 184
e 21 191
e 21 210
e 21 213
e 21 214
e 21 216
e 21 217
e 21 218
e 21 234
e 21 236
e 21 245
e 22 23
e 22 24
e 22 25
e 22 26
e 22 27
e 22 28
e 22 29
e 22 30
e 22 31
e 22 32
e 22 35
e 22 36
e 22 40
e 22 41
e 22 42
e 22 45
e 22 49
e 22 50
e 22 51
e 22 53
e 22 54
e 22 55
e 22 57
e 22 60
e 22 66
e 22 73
e 22 74
e 22 78
e 22 81
e 22 83
e 22 86
e 22 97
e 22 100
e 22 110
e 22 116
e 22 117
e 22 120
e 22 121
e 22 126
e 22 129
e 22 134
e 22 137
e 22 146
e 22 149
e 22 154
e 22 155
e 22 164
e 22 171
e 22 175
e 22 176
e 22 179
e 22 182
e 22 188
e 22 189
e 22 194
e 22 200
e 22 203
e 22 209
e 22 210
e 22 213
e 22 214
e 22 222
e 22 232
e 22 233
e 22 236
e 22 238
e 22 239
e 22 243
e 22 245
e 23 24
e 23 25
e 23 26
e 23 27
e 23 28
e 23 29
e 23 30
e 23 31
e 23 32
e 23 34
e 23 35
e 23 36
e 23 40
e 23 41
e 23 42
e 23 43
e 23 46
e 23 50
e 23 54
e 23 55
e 23 57
e 23 62
e 23 64
e 23 66
e 23 67
e 23 75
e 23 76
e 23 80
e 23 82
e 23 86
e 23 89
e 23 95
e 23 97
e 23 106
e 23 113
e 23 124
e 23 133
e 23 134
e 23 135
e 23 140
e 23 142
e 23 145
e 23 147
e 23 151
e 23 154
e 23 155
e 23 158
e 23 159
e 23 176
e 23 178
e 23 182
e 23 195
e 23 197
e 23 205
e 23 209
e 23 213
e 23 214
e 23 215
e 23 216
e 23 221
e 23 223
e 23 225
e 23 231
e 23 236
e 24 25
e 24 26
e 24 27
e 24 28
e 24 29
e 24 30
e 24 32
e 24 33
e 24 37
e 24 40
e 24 41
e 24 42
e 24 46
e 24 49
e 24 50
e 24 55
e 24 58
e 24 59
e 24 60
e 24 63
e 24 65
e 24 66
e 24 69
e 24 75
e 24 81
e 24 87
e 24 89
e 24 90
e 24 93
e 24 98
e 24 99
e 24 101
e 24 102
e 24 106
e 24 107
e 24 111
e 24 116
e 24 121
e 24 125
e 24 129
e 24 130
e 24 144
e 24 148
e 24 150
e 24 157
e 24 165
e 24 166
e 24 169
e 24 175
e 24 179
e 24 181
e 24 197
e 24 198
e 24 201
e 24 205
e 24 206
e 24 208
e 24 232
e 24 233
e 25 26
e 25 27
e 25 28
e 25 31
e 25 32
e 25 33
e 25 34
e 25 35
e 25 36
e 25 37
e 25 38
e 25 39
e 25 44
e 25 46
e 25 47
e 25 49
e 25 53
e 25 54
e 25 57
e 25 59
e 25 61
e 25 62
e 25 64
e 25 66
e 25 69
e 25 73
e 25 78
e 25 80
e 25 81
e 25 82
e 25 83
e 25 84
e 25 86
e 25 87
e 25 91
e 25 92
e 25 100
e 25 103
e 25 108
e 25 114
e 25 119
e 25 131
e 25 134
e 25 141
e 25 142
e 25 144
e 25 152
e 25 162
e 25 164
e 25 172
e 25 174
e 25 177
e 25 179
e 25 182
e 25 188
e 25 190
e 25 193
e 25 195
e 25 197
e 25 213
e 25 214
e 25 218
e 25 221
e 25 239
e 25 242
e 25 248
e 26 27
e 26 28
e 26 30
e 26 33
e 26 35
e 26 36
e 26 37
e 26 42
e 26 45
e 26 46
e 26 47
e 26 56
e 26 57
e 26 58
e 26 64
e 26 69
e 26 78
e 26 79
e 26 82
e 26 85
e 26 88
e 26 93
e 26 96
e 26 99
e 26 101
e 26 102
e 26 105
e 26 113
e 26 115
e 26 121
e 26 123
e 26 127
e 26 135
e 26 136
e 26 148
e 26 149
e 26 150
e 26 152
e 26 153
e 26 154
e 26 155
e 26 156
e 26 176
e 26 180
e 26 189
e 26 192
e 26 195
e 26 200
e 26 203
e 26 206
e 26 207
e 26 208
e 26 211
e 26 213
e 26 215
e 26 216
e 26 230
e 26 238
e 27 28
e 27 30
e 27 32
e 27 33
e 27 37
e 27 38
e 27 44
e 27 46
e 27 50
e 27 52
e 27 54
e 27 55
e 27 57
e 27 63
e 27 65
e 27 66
e 27 67
e 27 77
e 27 81
e 27 86
e 27 87
e 27 88
e 27 93
e 27 97
e 27 98
e 27 108
e 27 126
e 27 127
e 27 128
e 27 131
e 27 141
e 27 144
e 27 145
e 27 152
e 27 155
e 27 160
e 27 166
e 27 178
e 27 183
e 27 191
e 27 195
e 27 211
e 27 213
e 27 219
e 27 223
e 27 230
e 27 232
e 27 233
e 27 234
e 28 29
e 28 30
e 28 31
e 28 32
e 28 33
e 28 34
e 28 35
e 28 36
e 28 40
e 28 41
e 28 44
e 28 47
e 28 49
e 28 52
e 28 54
e 28 63
e 28 65
e 28 69
e 28 71
e 28 76
e 28 80
e 28 88
e 28 94
e 28 95
e 28 98
e 28 102
e 28 111
e 28 113
e 28 114
e 28 118
e 28 122
e 28 125
e 28 126
e 28 127
e 28 132
e 28 141
e 28 148
e 28 149
e 28 150
e 28 158
e 28 166
e 28 169
e 28 171
e 28 186
e 28 190
e 28 196
e 28 206
e 28 217
e 28 237
e 28 243
e 28 246
e 29 30
e 29 31
e 29 34
e 29 35
e 29 38
e 29 39
e 29 41
e 29 43
e 29 44
e 29 45
e 29 47
e 29 48
e 29 51
e 29 54
e 29 56
e 29 58
e 29 59
e 29 62
e 29 63
e 29 74
e 29 76
e 29 87
e 29 91
e 29 101
e 29 102
e 29 104
e 29 108
e 29 111
e 29 120
e 29 121
e 29 123
e 29 125
e 29 156
e 29 158
e 29 162
e 29 175
e 29 177
e 29 179
e 29 180
e 29 183
e 29 198
e 29 201
e 29 208
e 29 215
e 29 224
e 29 225
e 29 229
e 29 234
e 29 238
e 30 32
e 30 34
e 30 35
e 30 36
e 30 37
e 30 38
e 30 39
e 30 40
e 30 41
e 30 45
e 30 46
e 30 48
e 30 49
e 30 50
e 30 52
e 30 53
e 30 54
e 30 60
e 30 61
e 30 65
e 30 71
e 30 72
e 30 75
e 30 77
e 30 82
e 30 85
e 30 90
e 30 92
e 30 93
e 30 100
e 30 102
e 30 104
e 30 107
e 30 112
e 30 115
e 30 118
e 30 133
e 30 137
e 30 150
e 30 151
e 30 152
e 30 157
e 30 161
e 30 162
e 30 170
e 30 171
e 30 198
e 30 208
e 30 213
e 30 217
e 30 223
e 30 241
e 30 248
e 31 32
e 31 35
e 31 37
e 31 39
e 31 41
e 31 48
e 31 55
e 31 58
e 31 59
e 31 60
e 31 61
e 31 62
e 31 65
e 31 66
e 31 69
e 31 71
e 31 75
e 31 79
e 31 80
e 31 84
e 31 88
e 31 89
e 31 92
e 31 93
e 31 95
e 31 97
e 31 105
e 31 108
e 31 109
e 31 111
e 31 119
e 31 120
e 31 128
e 31 129
e 31 133
e 31 139
e 31 146
e 31 157
e 31 164
e 31 168
e 31 170
e 31 171
e 31 179
e 31 189
e 31 196
e 31 197
e 31 216
e 31 218
e 31 219
e 31 225
e 31 243
e 31 246
e 32 33
e 32 37
e 32 39
e 32 41
e 32 43
e 32 44
e 32 45
e 32 56
e 32 57
e 32 59
e 32 68
e 32 69
e 32 70
e 32 73
e 32 74
e 32 75
e 32 87
e 32 89
e 32 92
e 32 95
e 32 98
e 32 112
e 32 130
e 32 134
e 32 136
e 32 138
e 32 150
e 32 154
e 32 156
e 32 162
e 32 169
e 32 176
e 32 180
e 32 181
e 32 196
e 32 220
e 32 223
e 32 232
e 32 236
e 32 238
e 32 239
e 33 34
e 33 38
e 33 39
e 33 40
e 33 41
e 33 44
e 33 49
e 33 55
e 33 57
e 33 59
e 33 61
e 33 66
e 33 76
e 33 79
e 33 80
e 33 82
e 33 85
e 33 86
e 33 96
e 33 102
e 33 108
e 33 109
e 33 112
e 33 113
e 33 118
e 33 122
e 33 125
e 33 131
e 33 154
e 33 155
e 33 164
e 33 166
e 33 167
e 33 169
e 33 186
e 33 191
e 33 208
e 33 220
e 33 239
e 33 240
e 33 241
e 33 244
e 33 245
e 34 37
e 34 38
e 34 42
e 34 44
e 34 46
e 34 49
e 34 52
e 34 55
e 34 58
e 34 60
e 34 63
e 34 77
e 34 93
e 34 101
e 34 105
e 34 123
e 34 134
e 34 136
e 34 142
e 34 150
e 34 174
e 34 177
e 34 183
e 34 186
e 34 197
e 34 214
e 34 223
e 34 226
e 34 232
e 34 234
e 35 36
e 35 39
e 35 42
e 35 43
e 35 45
e 35 48
e 35 49
e 35 53
e 35 61
e 35 68
e 35 73
e 35 80
e 35 83
e 35 87
e 35 94
e 35 98
e 35 99
e 35 100
e 35 101
e 35 105
e 35 114
e 35 120
e 35 122
e 35 129
e 35 139
e 35 141
e 35 142
e 35 143
e 35 144
e 35 151
e 35 153
e 35 156
e 35 160
e 35 167
e 35 174
e 35 180
e 35 186
e 35 187
e 35 191
e 35 215
e 35 230
e 35 242
e 35 246
e 36 39
e 36 44
e 36 47
e 36 51
e 36 52
e 36 53
e 36 54
e 36 57
e 36 63
e 36 67
e 36 72
e 36 75
e 36 76
e 36 80
e 36 82
e 36 87
e 36 88
e 36 96
e 36 108
e 36 111
e 36 125
e 36 130
e 36 139
e 36 144
e 36 148
e 36 151
e 36 157
e 36 175
e 36 176
e 36 179
e 36 196
e 36 201
e 36 218
e 36 220
e 36 225
e 36 229
e 36 236
e 36 237
e 36 240
e 37 38
e 37 43
e 37 46
e 37 49
e 37 50
e 37 53
e 37 56
e 37 58
e 37 59
e 37 60
e 37 66
e 37 67
e 37 69
e 37 73
e 37 76
e 37 78
e 37 81
e 37 89
e 37 99
e 37 102
e 37 111
e 37 113
e 37 114
e 37 115
e 37 116
e 37 118
e 37 129
e 37 130
e 37 133
e 37 134
e 37 141
e 37 159
e 37 167
e 37 184
e 37 202
e 37 218
e 37 221
e 37 230
e 37 240
e 37 247
e 37 248
e 38 40
e 38 46
e 38 47
e 38 50
e 38 52
e 38 56
e 38 58
e 38 61
e 38 62
e 38 65
e 38 67
e 38 74
e 38 75
e 38 78
e 38 80
e 38 82
e 38 87
e 38 94
e 38 96
e 38 97
e 38 99
e 38 106
e 38 112
e 38 122
e 38 123
e 38 125
e 38 129
e 38 131
e 38 134
e 38 136
e 38 146
e 38 153
e 38 154
e 38 158
e 38 159
e 38 162
e 38 164
e 38 168
e 38 174
e 38 176
e 38 180
e 38 191
e 38 204
e 38 216
e 38 220
e 38 223
e 38 225
e 38 230
e 38 235
e 39 41
e 39 49
e 39 50
e 39 51
e 39 52
e 39 58
e 39 59
e 39 62
e 39 67
e 39 68
e 39 70
e 39 74
e 39 77
e 39 82
e 39 84
e 39 85
e 39 91
e 39 98
e 39 103
e 39 104
e 39 119
e 39 121
e 39 124
e 39 126
e 39 137
e 39 140
e 39 152
e 39 161
e 39 164
e 39 166
e 39 167
e 39 172
e 39 177
e 39 180
e 39 185
e 39 200
e 39 209
e 39 210
e 39 220
e 39 225
e 39 234
e 39 242
e 39 248
e 40 42
e 40 43
e 40 47
e 40 48
e 40 51
e 40 52
e 40 55
e 40 57
e 40 60
e 40 61
e 40 62
e 40 66
e 40 76
e 40 77
e 40 78
e 40 79
e 40 82
e 40 85
e 40 93
e 40 99
e 40 101
e 40 109
e 40 128
e 40 129
e 40 143
e 40 145
e 40 147
e 40 149
e 40 150
e 40 152
e 40 153
e 40 166
e 40 168
e 40 178
e 40 180
e 40 187
e 40 199
e 40 202
e 40 207
e 40 210
e 40 217
e 40 218
e 40 220
e 40 232
e 41 64
e 41 65
e 41 67
e 41 72
e 41 75
e 41 80
e 41 81
e 41 83
e 41 98
e 41 103
e 41 117
e 41 125
e 41 134
e 41 163
e 41 173
e 41 174
e 41 185
e 41 198
e 41 200
e 41 213
e 41 234
e 42 45
e 42 48
e 42 49
e 42 51
e 42 53
e 42 57
e 42 65
e 42 69
e 42 71
e 42 72
e 42 83
e 42 88
e 42 90
e 42 97
e 42 100
e 42 101
e 42 104
e 42 105
e 42 162
e 42 163
e 42 168
e 42 182
e 42 198
e 42 211
e 42 235
e 42 238
e 42 240
e 42 248
e 43 51
e 43 56
e 43 63
e 43 67
e 43 72
e 43 75
e 43 76
e 43 77
e 43 78
e 43 84
e 43 92
e 43 95
e 43 98
e 43 99
e 43 101
e 43 105
e 43 109
e 43 117
e 43 122
e 43 123
e 43 136
e 43 139
e 43 143
e 43 150
e 43 153
e 43 166
e 43 183
e 43 191
e 43 198
e 43 203
e 43 204
e 43 211
e 43 214
e 43 216
e 43 222
e 43 223
e 43 234
e 43 239
e 44 46
e 44 48
e 44 51
e 44 59
e 44 68
e 44 74
e 44 75
e 44 85
e 44 87
e 44 91
e 44 94
e 44 116
e 44 138
e 44 140
e 44 152
e 44 153
e 44 161
e 44 166
e 44 170
e 44 172
e 44 173
e 44 189
e 44 211
e 44 214
e 44 235
e 44 243
e 45 54
e 45 57
e 45 60
e 45 71
e 45 74
e 45 75
e 45 77
e 45 79
e 45 91
e 45 92
e 45 104
e 45 110
e 45 111
e 45 150
e 45 152
e 45 154
e 45 160
e 45 175
e 45 205
e 45 206
e 45 212
e 45 215
e 45 218
e 45 226
e 45 227
e 45 229
e 45 245
e 45 246
e 46 50
e 46 54
e 46 55
e 46 62
e 46 68
e 46 87
e 46 99
e 46 100
e 46 102
e 46 106
e 46 108
e 46 122
e 46 125
e 46 126
e 46 130
e 46 147
e 46 154
e 46 155
e 46 169
e 46 178
e 46 184
e 46 193
e 46 196
e 46 204
e 46 206
e 46 208
e 46 211
e 46 224
e 46 226
e 46 230
e 46 241
e 47 51
e 47 53
e 47 57
e 47 64
e 47 87
e 47 91
e 47 92
e 47 95
e 47 98
e 47 106
e 47 107
e 47 113
e 47 117
e 47 122
e 47 129
e 47 131
e 47 163
e 47 172
e 47 174
e 47 185
e 47 188
e 47 198
e 47 202
e 47 227
e 47 237
e 47 247
e 47 248
e 48 55
e 48 61
e 48 64
e 48 67
e 48 83
e 48 91
e 48 95
e 48 105
e 48 110
e 48 123
e 48 128
e 48 144
e 48 157
e 48 161
e 48 170
e 48 175
e 48 176
e 48 177
e 48 181
e 48 182
e 48 187
e 48 190
e 48 192
e 48 194
e 48 195
e 48 234
e 48 248
e 49 53
e 49 54
e 49 58
e 49 64
e 49 68
e 49 80
e 49 106
e 49 121
e 49 126
e 49 132
e 49 134
e 49 135
e 49 140
e 49 151
e 49 152
e 49 161
e 49 164
e 49 165
e 49 172
e 49 175
e 49 178
e 49 188
e 49 202
e 49 209
e 49 244
e 50 52
e 50 53
e 50 55
e 50 56
e 50 63
e 50 64
e 50 69
e 50 70
e 50 74
e 50 83
e 50 84
e 50 85
e 50 99
e 50 101
e 50 115
e 50 130
e 50 131
e 50 135
e 50 136
e 50 150
e 50 155
e 50 163
e 50 171
e 50 180
e 50 182
e 50 233
e 51 63
e 51 70
e 51 71
e 51 84
e 51 85
e 51 94
e 51 99
e 51 101
e 51 112
e 51 116
e 51 131
e 51 137
e 51 154
e 51 161
e 51 167
e 51 205
e 51 210
e 51 228
e 51 241
e 51 243
e 52 53
e 52 54
e 52 57
e 52 61
e 52 63
e 52 66
e 52 67
e 52 70
e 52 93
e 52 103
e 52 106
e 52 110
e 52 116
e 52 127
e 52 128
e 52 132
e 52 135
e 52 138
e 52 140
e 52 142
e 52 147
e 52 157
e 52 174
e 52 183
e 52 218
e 52 222
e 52 227
e 52 232
e 52 238
e 52 240
e 52 245
e 53 58
e 53 59
e 53 61
e 53 70
e 53 73
e 53 80
e 53 83
e 53 84
e 53 94
e 53 99
e 53 100
e 53 115
e 53 126
e 53 130
e 53 138
e 53 144
e 53 145
e 53 150
e 53 151
e 53 167
e 53 169
e 53 171
e 53 177
e 53 178
e 53 199
e 53 206
e 53 209
e 53 216
e 53 217
e 53 222
e 53 232
e 53 242
e 53 247
e 54 56
e 54 60
e 54 64
e 54 65
e 54 66
e 54 67
e 54 68
e 54 70
e 54 71
e 54 76
e 54 78
e 54 86
e 54 94
e 54 96
e 54 105
e 54 110
e 54 111
e 54 118
e 54 122
e 54 126
e 54 130
e 54 132
e 54 147
e 54 158
e 54 167
e 54 169
e 54 192
e 54 207
e 54 211
e 54 213
e 54 235
e 55 81
e 55 88
e 55 92
e 55 104
e 55 144
e 55 202
e 55 215
e 55 233
e 56 58
e 56 59
e 56 60
e 56 68
e 56 81
e 56 89
e 56 96
e 56 121
e 56 148
e 56 152
e 56 158
e 56 169
e 56 171
e 56 179
e 56 188
e 56 211
e 56 223
e 56 237
e 56 238
e 57 58
e 57 59
e 57 62
e 57 68
e 57 69
e 57 73
e 57 90
e 57 133
e 57 151
e 57 158
e 57 162
e 57 168
e 57 180
e 57 191
e 57 192
e 57 193
e 57 194
e 57 207
e 57 210
e 57 212
e 57 226
e 57 234
e 57 238
e 57 242
e 57 244
e 58 62
e 58 63
e 58 65
e 58 69
e 58 72
e 58 93
e 58 97
e 58 100
e 58 101
e 58 103
e 58 104
e 58 105
e 58 110
e 58 112
e 58 114
e 58 115
e 58 120
e 58 121
e 58 128
e 58 131
e 58 132
e 58 134
e 58 135
e 58 144
e 58 145
e 58 147
e 58 149
e 58 153
e 58 158
e 58 164
e 58 171
e 58 172
e 58 174
e 58 181
e 58 188
e 58 201
e 59 60
e 59 61
e 59 67
e 59 73
e 59 81
e 59 85
e 59 86
e 59 88
e 59 102
e 59 108
e 59 111
e 59 113
e 59 118
e 59 129
e 59 132
e 59 138
e 59 140
e 59 142
e 59 169
e 59 184
e 59 193
e 59 202
e 59 244
e 59 245
e 60 64
e 60 69
e 60 71
e 60 72
e 60 77
e 60 85
e 60 86
e 60 90
e 60 91
e 60 107
e 60 111
e 60 120
e 60 121
e 60 122
e 60 124
e 60 127
e 60 133
e 60 139
e 60 140
e 60 149
e 60 161
e 60 165
e 60 170
e 60 176
e 60 179
e 60 182
e 60 188
e 60 196
e 60 200
e 60 232
e 60 234
e 60 247
e 61 62
e 61 71
e 61 73
e 61 87
e 61 88
e 61 109
e 61 117
e 61 124
e 61 127
e 61 128
e 61 132
e 61 139
e 61 142
e 61 143
e 61 175
e 61 181
e 61 185
e 61 191
e 61 200
e 61 208
e 61 219
e 61 226
e 61 231
e 61 233
e 62 63
e 62 64
e 62 68
e 62 71
e 62 82
e 62 83
e 62 84
e 62 85
e 62 107
e 62 115
e 62 119
e 62 127
e 62 141
e 62 156
e 62 165
e 62 197
e 62 199
e 62 205
e 62 216
e 62 227
e 62 246
e 62 247
e 63 65
e 63 69
e 63 70
e 63 79
e 63 86
e 63 116
e 63 123
e 63 126
e 63 137
e 63 141
e 63 156
e 63 163
e 63 174
e 63 184
e 63 188
e 63 195
e 63 218
e 63 219
e 63 226
e 63 227
e 63 241
e 63 243
e 63 248
e 64 74
e 64 98
e 64 102
e 64 110
e 64 118
e 64 125
e 64 168
e 64 181
e 64 198
e 64 215
e 64 237
e 64 240
e 64 247
e 65 66
e 65 71
e 65 74
e 65 75
e 65 77
e 65 80
e 65 90
e 65 93
e 65 95
e 65 96
e 65 101
e 65 114
e 65 119
e 65 134
e 65 137
e 65 146
e 65 163
e 65 172
e 65 173
e 65 185
e 65 194
e 65 199
e 65 212
e 65 225
e 65 227
e 65 228
e 65 242
e 65 243
e 65 247
e 66 67
e 66 70
e 66 77
e 66 85
e 66 86
e 66 92
e 66 94
e 66 99
e 66 100
e 66 105
e 66 107
e 66 109
e 66 113
e 66 117
e 66 118
e 66 139
e 66 146
e 66 149
e 66 153
e 66 160
e 66 193
e 66 195
e 66 199
e 66 203
e 66 205
e 66 210
e 66 229
e 66 246
e 67 76
e 67 81
e 67 87
e 67 93
e 67 95
e 67 98
e 67 101
e 67 102
e 67 103
e 67 124
e 67 125
e 67 138
e 67 142
e 67 150
e 67 155
e 67 157
e 67 162
e 67 172
e 67 197
e 67 200
e 67 212
e 67 224
e 67 237
e 67 241
e 68 72
e 68 75
e 68 76
e 68 80
e 68 91
e 68 95
e 68 109
e 68 115
e 68 120
e 68 125
e 68 127
e 68 145
e 68 149
e 68 160
e 68 192
e 68 203
e 68 229
e 68 238
e 68 248
e 69 74
e 69 89
e 69 96
e 69 98
e 69 106
e 69 110
e 69 143
e 69 145
e 69 157
e 69 167
e 69 170
e 69 175
e 69 178
e 69 193
e 69 237
e 70 72
e 70 74
e 70 75
e 70 78
e 70 81
e 70 91
e 70 139
e 70 140
e 70 146
e 70 153
e 70 156
e 70 160
e 70 187
e 70 189
e 70 198
e 70 219
e 70 222
e 70 229
e 71 76
e 71 82
e 71 86
e 71 92
e 71 102
e 71 167
e 71 171
e 71 226
e 72 73
e 72 127
e 72 138
e 72 141
e 72 146
e 72 159
e 72 161
e 72 184
e 72 196
e 72 229
e 72 239
e 73 88
e 73 96
e 73 103
e 73 107
e 73 119
e 73 138
e 73 182
e 73 187
e 73 191
e 73 194
e 73 201
e 73 206
e 73 220
e 74 78
e 74 94
e 74 109
e 74 135
e 74 165
e 74 178
e 74 186
e 74 193
e 74 214
e 75 76
e 75 80
e 75 106
e 75 107
e 75 116
e 75 117
e 75 153
e 75 163
e 75 185
e 75 189
e 75 223
e 75 228
e 76 100
e 76 107
e 76 109
e 76 151
e 76 155
e 76 156
e 76 160
e 76 163
e 76 173
e 76 204
e 76 207
e 76 209
e 76 210
e 76 221
e 76 233
e 76 235
e 76 242
e 77 91
e 77 105
e 77 140
e 77 213
e 77 229
e 78 83
e 78 89
e 78 93
e 78 100
e 78 113
e 78 120
e 78 123
e 78 133
e 78 136
e 78 154
e 78 170
e 78 182
e 78 187
e 78 189
e 78 208
e 78 224
e 78 231
e 78 248
e 79 85
e 79 87
e 79 88
e 79 89
e 79 94
e 79 118
e 79 122
e 79 126
e 79 128
e 79 129
e 79 137
e 79 142
e 79 144
e 79 146
e 79 151
e 79 162
e 79 180
e 79 185
e 79 206
e 79 213
e 79 214
e 79 215
e 79 233
e 79 239
e 79 243
e 80 83
e 80 109
e 80 133
e 80 134
e 80 141
e 80 145
e 80 148
e 80 163
e 80 172
e 80 206
e 80 208
e 80 214
e 80 231
e 80 246
e 81 82
e 81 88
e 81 89
e 81 90
e 81 91
e 81 116
e 81 124
e 81 133
e 81 136
e 81 145
e 81 161
e 81 190
e 81 209
e 81 213
e 82 84
e 82 86
e 82 103
e 82 136
e 82 140
e 82 141
e 82 157
e 82 174
e 82 178
e 82 196
e 83 84
e 83 87
e 83 89
e 83 107
e 83 109
e 83 113
e 83 137
e 83 150
e 83 173
e 83 212
e 83 245
e 84 94
e 84 112
e 84 118
e 84 149
e 84 171
e 84 186
e 84 207
e 85 86
e 85 90
e 85 93
e 85 97
e 85 114
e 85 118
e 85 139
e 85 144
e 85 171
e 85 175
e 85 181
e 85 183
e 85 187
e 85 211
e 85 216
e 85 236
e 85 242
e 86 91
e 86 106
e 86 119
e 86 121
e 86 133
e 86 138
e 86 143
e 86 152
e 86 153
e 86 178
e 86 184
e 86 200
e 86 214
e 86 235
e 87 92
e 87 115
e 87 118
e 87 127
e 87 128
e 87 133
e 87 155
e 87 161
e 87 202
e 87 210
e 88 91
e 88 96
e 88 104
e 88 112
e 88 118
e 88 161
e 88 181
e 88 213
e 88 218
e 88 225
e 88 228
e 88 235
e 89 104
e 89 125
e 89 133
e 89 155
e 89 159
e 89 182
e 89 231
e 90 110
e 90 112
e 90 140
e 90 205
e 91 106
e 91 107
e 91 118
e 91 123
e 91 132
e 91 142
e 91 154
e 91 156
e 91 199
e 91 231
e 92 95
e 92 112
e 92 114
e 92 115
e 92 117
e 92 132
e 92 145
e 92 148
e 92 152
e 92 165
e 92 167
e 92 172
e 92 176
e 92 182
e 92 195
e 92 213
e 92 218
e 92 232
e 92 237
e 92 239
e 93 96
e 93 103
e 93 126
e 93 138
e 94 95
e 94 98
e 94 103
e 94 114
e 94 127
e 94 177
e 94 187
e 94 202
e 94 212
e 94 230
e 94 239
e 95 99
e 95 100
e 95 131
e 95 137
e 95 147
e 95 224
e 95 243
e 95 244
e 96 100
e 96 103
e 96 104
e 96 110
e 96 115
e 96 116
e 96 121
e 96 131
e 96 132
e 96 147
e 96 154
e 96 162
e 96 170
e 96 175
e 96 179
e 96 188
e 96 204
e 96 210
e 96 233
e 96 234
e 97 105
e 97 106
e 97 119
e 97 130
e 97 151
e 97 158
e 97 163
e 97 164
e 97 168
e 97 187
e 97 191
e 97 197
e 97 222
e 97 231
e 98 103
e 98 108
e 98 112
e 98 117
e 98 120
e 98 124
e 98 129
e 98 143
e 98 147
e 98 241
e 98 246
e 99 106
e 99 111
e 99 116
e 99 144
e 99 161
e 99 167
e 99 196
e 99 199
e 99 202
e 99 203
e 99 230
e 99 232
e 100 101
e 100 110
e 100 133
e 100 141
e 100 148
e 100 149
e 100 155
e 100 156
e 100 165
e 100 203
e 100 221
e 100 235
e 100 236
e 101 108
e 101 111
e 101 119
e 101 123
e 101 131
e 101 137
e 101 140
e 101 147
e 101 151
e 101 162
e 101 166
e 101 167
e 101 180
e 101 185
e 101 244
e 102 103
e 102 109
e 102 117
e 102 122
e 102 123
e 102 127
e 102 139
e 102 146
e 102 149
e 102 183
e 102 186
e 102 204
e 102 205
e 102 209
e 102 211
e 102 214
e 102 215
e 102 217
e 102 219
e 102 220
e 102 222
e 102 241
e 103 109
e 103 120
e 103 153
e 103 172
e 103 178
e 103 183
e 103 189
e 103 242
e 103 243
e 103 245
e 103 247
e 104 105
e 104 107
e 104 130
e 104 140
e 104 148
e 104 153
e 104 166
e 104 176
e 104 179
e 104 182
e 104 196
e 104 211
e 104 221
e 105 114
e 105 119
e 105 121
e 105 122
e 105 131
e 105 133
e 105 158
e 105 159
e 105 170
e 105 201
e 105 208
e 105 217
e 105 226
e 106 148
e 106 176
e 106 177
e 106 209
e 106 210
e 106 212
e 106 228
e 106 237
e 106 243
e 106 246
e 107 113
e 107 131
e 107 141
e 107 142
e 107 149
e 107 150
e 107 195
e 107 200
e 107 212
e 107 246
e 108 115
e 108 116
e 108 157
e 108 159
e 108 160
e 108 183
e 108 193
e 108 195
e 108 214
e 108 220
e 108 237
e 109 121
e 109 128
e 109 148
e 109 157
e 109 159
e 109 195
e 109 242
e 110 111
e 110 117
e 110 122
e 110 124
e 110 131
e 110 134
e 110 135
e 110 137
e 110 138
e 110 140
e 110 144
e 110 146
e 110 162
e 110 168
e 110 192
e 110 193
e 110 225
e 110 236
e 110 245
e 110 246
e 111 127
e 111 128
e 111 129
e 111 130
e 111 146
e 111 189
e 111 223
e 111 230
e 111 231
e 112 119
e 112 143
e 112 151
e 112 163
e 112 166
e 112 178
e 112 214
e 112 219
e 112 220
e 113 123
e 113 124
e 113 141
e 113 143
e 113 159
e 113 160
e 113 166
e 113 239
e 113 244
e 114 117
e 114 131
e 114 156
e 114 171
e 114 203
e 114 240
e 114 244
e 115 143
e 115 203
e 115 209
e 115 218
e 115 224
e 116 126
e 116 161
e 116 165
e 116 169
e 116 173
e 116 177
e 116 178
e 116 192
e 116 195
e 116 202
e 116 217
e 116 223
e 116 231
e 117 148
e 117 173
e 117 178
e 117 192
e 117 194
e 117 216
e 117 226
e 117 235
e 118 124
e 118 135
e 118 172
e 118 176
e 118 187
e 118 190
e 118 196
e 118 203
e 118 216
e 118 217
e 118 222
e 118 241
e 119 128
e 119 136
e 119 138
e 119 140
e 119 149
e 119 150
e 119 157
e 119 179
e 119 212
e 119 219
e 119 228
e 120 126
e 120 129
e 120 130
e 120 165
e 120 167
e 120 176
e 120 187
e 120 188
e 120 190
e 120 209
e 120 229
e 120 231
e 121 192
e 121 197
e 121 212
e 121 235
e 121 244
e 122 123
e 122 136
e 122 143
e 122 145
e 122 189
e 122 204
e 122 215
e 122 222
e 123 128
e 123 135
e 123 143
e 123 163
e 123 173
e 123 228
e 124 160
e 124 169
e 124 206
e 124 217
e 124 219
e 124 224
e 124 248
e 125 127
e 125 135
e 125 147
e 125 181
e 125 183
e 125 190
e 125 194
e 125 219
e 126 145
e 126 150
e 126 170
e 126 176
e 126 221
e 127 133
e 127 138
e 127 144
e 127 149
e 127 184
e 127 193
e 127 208
e 128 161
e 128 197
e 128 199
e 129 148
e 129 158
e 129 170
e 129 194
e 129 201
e 129 204
e 129 212
e 129 241
e 129 242
e 130 146
e 130 157
e 130 178
e 130 190
e 130 200
e 130 214
e 130 215
e 130 221
e 130 245
e 130 246
e 130 247
e 131 136
e 131 157
e 131 164
e 131 176
e 131 187
e 131 192
e 131 220
e 131 222
e 131 224
e 131 229
e 131 235
e 132 178
e 132 182
e 132 192
e 132 198
e 132 207
e 132 231
e 133 135
e 133 163
e 133 224
e 133 227
e 134 140
e 134 195
e 134 208
e 135 137
e 135 244
e 136 148
e 136 173
e 136 221
e 136 247
e 137 143
e 137 152
e 137 183
e 137 186
e 137 210
e 137 236
e 137 243
e 138 159
e 138 177
e 138 198
e 138 205
e 138 215
e 139 196
e 139 204
e 139 224
e 140 151
e 140 154
e 140 155
e 140 170
e 140 177
e 140 206
e 140 207
e 140 216
e 140 222
e 140 233
e 140 234
e 140 236
e 141 155
e 141 180
e 141 191
e 142 153
e 142 165
e 142 173
e 142 181
e 142 184
e 142 188
e 142 189
e 142 204
e 142 224
e 143 146
e 143 159
e 143 164
e 143 167
e 143 187
e 143 190
e 143 206
e 143 222
e 143 233
e 144 154
e 144 183
e 144 184
e 144 186
e 144 205
e 144 237
e 144 240
e 145 162
e 145 185
e 146 158
e 146 159
e 146 172
e 146 191
e 146 204
e 146 205
e 146 220
e 146 226
e 146 229
e 146 234
e 146 238
e 147 170
e 147 175
e 147 221
e 148 166
e 148 185
e 148 188
e 148 190
e 148 216
e 148 219
e 148 227
e 149 174
e 149 222
e 149 224
e 149 240
e 150 168
e 150 217
e 150 223
e 150 235
e 150 240
e 151 165
e 151 171
e 151 175
e 151 190
e 151 208
e 151 211
e 151 226
e 151 245
e 152 175
e 152 204
e 152 209
e 152 210
e 152 245
e 153 158
e 153 186
e 153 188
e 153 232
e 153 237
e 154 156
e 154 174
e 154 181
e 154 220
e 154 246
e 155 177
e 155 182
e 155 188
e 155 202
e 155 203
e 155 217
e 155 229
e 155 247
e 156 225
e 156 238
e 157 160
e 157 161
e 157 163
e 157 165
e 157 166
e 157 184
e 157 196
e 157 200
e 157 226
e 158 160
e 158 164
e 158 165
e 158 183
e 158 186
e 158 188
e 158 191
e 158 227
e 159 168
e 159 172
e 159 191
e 159 194
e 159 195
e 159 197
e 159 200
e 159 211
e 159 216
e 159 243
e 160 163
e 160 229
e 160 243
e 161 205
e 162 170
e 162 204
e 162 205
e 162 220
e 162 233
e 163 198
e 163 199
e 163 228
e 164 168
e 164 197
e 164 199
e 164 217
e 164 222
e 164 229
e 165 166
e 165 189
e 165 209
e 165 235
e 165 244
e 165 246
e 166 169
e 166 187
e 166 193
e 166 207
e 167 186
e 167 189
e 167 192
e 167 198
e 167 226
e 168 207
e 168 211
e 168 228
e 169 183
e 169 192
e 169 201
e 169 245
e 170 212
e 170 229
e 170 231
e 170 234
e 171 181
e 171 200
e 171 230
e 171 244
e 172 201
e 172 203
e 172 227
e 173 209
e 174 180
e 174 212
e 175 179
e 175 198
e 175 238
e 176 184
e 176 193
e 176 228
e 177 226
e 177 230
e 177 235
e 177 236
e 178 185
e 178 193
e 179 208
e 179 218
e 179 219
e 179 225
e 180 185
e 180 190
e 180 206
e 180 218
e 180 234
e 180 236
e 180 242
e 181 215
e 181 216
e 181 239
e 182 239
e 183 186
e 183 201
e 183 228
e 183 238
e 184 221
e 184 227
e 184 238
e 185 190
e 185 197
e 185 210
e 185 223
e 185 241
e 186 200
e 186 220
e 188 209
e 190 192
e 190 221
e 191 194
e 191 246
e 192 196
e 192 199
e 193 197
e 193 227
e 194 199
e 194 202
e 194 247
e 195 242
e 196 226
e 196 236
e 196 240
e 197 198
e 197 206
e 197 227
e 197 240
e 198 237
e 199 207
e 199 241
e 201 225
e 202 215
e 202 216
e 202 225
e 202 231
e 203 212
e 203 225
e 205 221
e 205 227
e 206 247
e 207 228
e 207 232
e 207 241
e 207 248
e 208 219
e 209 244
e 210 228
e 210 239
e 211 230
e 215 226
e 215 244
e 215 245
e 216 230
e 218 229
e 218 238
e 218 248
e 219 238
e 220 224
e 220 240
e 223 240
e 223 242
e 223 248
e 226 235
e 228 236
e 231 245
e 232 233
e 241 242
e 247 248
